0 1344
1 1335
2 1328
3 1328
4 1289
5 1252
6 1252
7 1252
8 1252
9 1240
10 1240
11 1240
12 1240
13 1240
14 1240
15 1240
16 1240
17 1240
18 1233
19 1233
20 1233
21 1233
22 1209
23 1209
24 1209
25 1209
26 1209
27 1209
28 1209
29 1209
30 1209
31 1162
32 1162
33 1091
34 1091
35 1091
36 1091
37 1091
38 1091
39 1091
40 1091
41 1091
42 1049
43 1049
44 1029
45 1029
46 1029
47 1029
48 1029
49 1000
50 1000
51 992
52 992
53 966
54 966
55 966
56 960
57 960
58 949
59 943
60 943
61 943
62 941
63 938
64 938
65 927
66 924
67 924
68 899
69 894
70 894
71 894
72 894
73 889
74 889
75 876
76 876
77 869
78 869
79 869
80 869
81 862
82 862
83 855
84 855
85 855
86 855
87 850
88 830
89 830
90 830
91 830
92 830
93 813
94 813
95 809
96 809
97 809
98 805
99 804
100 804
101 804
102 794
103 794
104 782
105 782
106 782
107 782
108 782
109 782
110 782
111 762
112 762
113 760
114 760
115 760
116 760
117 760
118 760
119 760
120 760
121 736
122 736
123 736
124 736
125 736
126 736
127 736
128 736
129 731
130 729
131 729
132 716
133 716
134 716
135 716
136 716
137 716
138 716
139 716
140 716
141 716
142 716
143 710
144 710
145 710
146 710
147 710
148 710
149 710
150 710
151 710
152 710
153 710
154 710
155 709
156 709
157 701
158 701
159 701
160 701
161 701
162 701
163 701
164 701
165 693
166 693
167 693
168 693
169 693
170 693
171 693
172 693
173 693
174 693
175 693
176 678
177 678
178 678
179 678
180 678
181 678
182 678
183 678
184 678
185 678
186 678
187 678
188 678
189 678
190 678
191 678
192 678
193 678
194 673
195 673
196 673
197 673
198 673
199 673
200 673
201 673
202 671
203 665
204 665
205 665
206 665
207 665
208 665
209 665
210 665
211 658
212 658
213 658
214 658
215 658
216 658
217 658
218 658
219 658
220 656
221 656
222 656
223 656
224 656
225 654
226 653
227 648
228 648
229 648
230 648
231 648
232 648
233 648
234 648
235 648
236 647
237 647
238 647
239 639
240 639
241 634
242 634
243 634
244 634
245 632
246 632
247 632
248 632
249 632
